c WARNING: for repeatability, setting FPU to use double precision
d VARIABLES            75036        
d CONSTRAINTS          266336       
c ============================[ Problem Statistics ]=============================
c |                                                                             |
c |  Number of variables:         75036                                         |
c |  Number of clauses:          266336                                         |
c |  Parse time:                   0.04 s                                       |
c |                                                                             |
c ============================[ Search Statistics ]==============================
c | Conflicts |          ORIGINAL         |          LEARNT          | Progress |
c |           |    Vars  Clauses Literals |    Limit  Clauses Lit/Cl |          |
c ===============================================================================
c |       100 |   54969   214314   539497 |    78581      100      7 | 26.743 % |
c |       250 |   54969   214314   539497 |    86439      250     14 | 26.743 % |
c |       475 |   54969   214314   539497 |    95083      475     32 | 26.743 % |
c |       812 |   54969   214314   539497 |   104592      812     29 | 26.743 % |
c |      1318 |   54969   214314   539497 |   115051     1318     23 | 26.743 % |
c |      2077 |   54969   214314   539497 |   126556     2077     25 | 26.743 % |
c |      3216 |   54969   214314   539497 |   139212     3216     54 | 26.743 % |
c |      4924 |   54969   214314   539497 |   153133     4924     49 | 26.743 % |
c |      7486 |   54969   214314   539497 |   168447     7486     76 | 26.743 % |
c |     11330 |   54969   214314   539497 |   185291    11330     95 | 26.743 % |
c |     17096 |   54969   214314   539497 |   203820    17096    111 | 26.743 % |
c |     25745 |   54969   214314   539497 |   224203    25745    150 | 26.743 % |
c |     38719 |   54969   214314   539497 |   246623    38719    158 | 26.743 % |
c |     58180 |   54969   214314   539497 |   271285    58180    165 | 26.743 % |
c |     87372 |   54969   214314   539497 |   298414    87372    164 | 26.743 % |
c |    131161 |   54969   214314   539497 |   328255   131161    171 | 26.743 % |
c |    196845 |   54969   214314   539497 |   361081   196845    170 | 26.743 % |
c |    295371 |   54969   214314   539497 |   397189   295371    174 | 26.743 % |
c |    443160 |   54969   214314   539497 |   436908    44954    117 | 26.743 % |
c |    664843 |   54969   214314   539497 |   480599   266637    134 | 26.743 % |
c |    997368 |   54969   214314   539497 |   528659   129856    135 | 26.743 % |
c |   1496156 |   54969   214314   539497 |   581524   115433    117 | 26.743 % |
c |   2244338 |   54969   214314   539497 |   639677   294275    130 | 26.743 % |
c |   3366612 |   54969   214314   539497 |   703645   155672    115 | 26.743 % |
c ===============================================================================
c restarts              : 7035
c conflicts             : 3964512        (2213 /sec)
c decisions             : 8079440        (0.00 % random) (4511 /sec)
c propagations          : 4509921834     (2517838 /sec)
c conflict literals     : 551263969      (39.13 % deleted)
d RESTARTS             7035
d FAILURES             3964512      
d NODES                8079440      
d BACKTRACKS           8079440      
d PROPAGATIONS         4509921834   
d NOGOODSIZE           139.05 
d MEMORY               704.00 
d TIME                 1791.19 

s UNKNOWN
